Read MPS format model from file dat/rmp/DER_24_16384_42.mps
Reading time = 0.81 seconds
: 16408 rows, 95845 columns, 2169009 nonzeros
Gurobi Optimizer version 9.0.0 build v9.0.0rc2 (linux64)
Optimize a model with 16408 rows, 95845 columns and 2169009 nonzeros
Model fingerprint: 0xca46a433
Coefficient statistics:
  Matrix range     [3e-05, 1e+01]
  Objective range  [2e-01, 1e+03]
  Bounds range     [1e+05, 1e+05]
  RHS range        [1e+00, 1e+00]
Ordering time: 0.01s

Barrier statistics:
 AA' NZ     : 3.725e+05
 Factor NZ  : 5.234e+05 (roughly 50 MBytes of memory)
 Factor Ops : 1.817e+07 (less than 1 second per iteration)
 Threads    : 1

                  Objective                Residual
Iter       Primal          Dual         Primal    Dual     Compl     Time
   0   8.87405705e+08 -5.24022628e+07  6.09e+07 7.38e-03  3.27e+05     0s
   1   2.01248771e+07 -1.05293919e+07  1.33e+06 1.82e-12  7.27e+03     1s
   2   7.62415442e+05 -6.51869488e+06  4.86e+04 1.82e-12  3.27e+02     1s
   3   2.44702318e+04 -3.50489280e+06  5.61e-10 1.82e-12  3.68e+01     1s
   4   2.37648746e+04  1.69483716e+04  2.83e-10 1.82e-12  7.11e-02     1s
   5   2.34613843e+04  2.18939029e+04  2.25e-10 1.82e-12  1.64e-02     1s
   6   2.33235271e+04  2.28741238e+04  2.75e-10 1.82e-12  4.69e-03     1s
   7   2.32003058e+04  2.30533911e+04  3.30e-10 3.64e-12  1.53e-03     1s
   8   2.31595401e+04  2.31324449e+04  5.05e-10 1.82e-12  2.83e-04     1s
   9   2.31476958e+04  2.31375220e+04  2.18e-09 2.73e-12  1.06e-04     1s
  10   2.31448092e+04  2.31416056e+04  1.62e-09 7.28e-12  3.34e-05     2s
  11   2.31441479e+04  2.31420903e+04  1.50e-09 7.28e-12  2.15e-05     2s
  12   2.31439119e+04  2.31424675e+04  1.37e-09 5.46e-12  1.51e-05     2s
  13   2.31436684e+04  2.31426938e+04  1.39e-09 3.64e-12  1.02e-05     2s
  14   2.31435400e+04  2.31429656e+04  2.87e-09 7.28e-12  5.99e-06     2s
  15   2.31435172e+04  2.31430765e+04  2.91e-09 4.55e-12  4.60e-06     2s
  16   2.31435046e+04  2.31431786e+04  2.75e-09 5.46e-12  3.40e-06     2s
  17   2.31434841e+04  2.31432167e+04  3.29e-09 3.64e-12  2.79e-06     2s
  18   2.31434720e+04  2.31432814e+04  4.21e-09 5.46e-12  1.99e-06     2s
  19   2.31434231e+04  2.31433070e+04  1.20e-08 3.64e-12  1.21e-06     2s
  20   2.31434190e+04  2.31433327e+04  1.11e-08 1.82e-12  9.00e-07     2s
  21   2.31434179e+04  2.31433446e+04  1.07e-08 3.64e-12  7.65e-07     3s
  22   2.31434141e+04  2.31433578e+04  1.32e-08 3.64e-12  5.87e-07     3s
  23   2.31434130e+04  2.31433690e+04  1.18e-08 1.82e-12  4.59e-07     3s
  24   2.31434100e+04  2.31433717e+04  2.51e-08 3.64e-12  3.99e-07     3s
  25   2.31434069e+04  2.31433771e+04  4.80e-08 3.64e-12  3.11e-07     3s
  26   2.31434016e+04  2.31433830e+04  1.23e-07 3.64e-12  1.94e-07     3s
  27   2.31433999e+04  2.31433852e+04  1.45e-07 3.00e-12  1.54e-07     3s
  28   2.31433995e+04  2.31433859e+04  1.43e-07 2.90e-12  1.42e-07     3s
  29   2.31433985e+04  2.31433877e+04  1.20e-07 2.59e-12  1.12e-07     3s
  30   2.31433974e+04  2.31433887e+04  1.82e-07 2.45e-12  9.09e-08     3s
  31   2.31433969e+04  2.31433905e+04  1.57e-07 1.96e-12  6.69e-08     4s
  32   2.31433967e+04  2.31433909e+04  2.07e-07 1.85e-12  6.07e-08     4s
  33   2.31433964e+04  2.31433919e+04  2.80e-07 1.96e-12  4.66e-08     4s
  34   2.31433962e+04  2.31433926e+04  3.47e-07 1.82e-12  3.81e-08     4s
  35   2.31433955e+04  2.31433929e+04  1.24e-06 3.64e-12  2.68e-08     4s
  36   2.31433945e+04  2.31433931e+04  3.55e-06 1.82e-12  1.40e-08     4s
  37   2.31433943e+04  2.31433932e+04  3.66e-06 1.82e-12  1.10e-08     4s
  38   2.31433943e+04  2.31433934e+04  3.51e-06 1.82e-12  8.79e-09     4s
  39   2.31433942e+04  2.31433938e+04  3.24e-06 3.64e-12  4.70e-09     4s
  40   2.31433942e+04  2.31433939e+04  2.88e-06 1.82e-12  3.63e-09     4s
  41   2.31433942e+04  2.31433939e+04  4.56e-06 1.82e-12  2.94e-09     4s
  42   2.31433941e+04  2.31433939e+04  1.52e-05 3.64e-12  2.24e-09     5s
  43   2.31433940e+04  2.31433939e+04  4.52e-05 1.82e-12  1.54e-09     5s
  44   2.31433940e+04  2.31433939e+04  2.39e-04 1.82e-12  1.36e-09     5s
  45   2.31433940e+04  2.31433939e+04  1.26e-03 3.64e-12  3.10e-10     5s
  46   2.31433940e+04  2.31433939e+04  7.30e-04 3.64e-12  1.81e-10     5s
  47   2.31433939e+04  2.31433939e+04  1.93e-04 3.64e-12  1.61e-10     5s
  48   2.31433939e+04  2.31433939e+04  6.41e-07 3.64e-12  5.94e-11     5s

Barrier solved model in 48 iterations and 5.34 seconds
Optimal objective 2.31433939e+04

Solve time: 5.338619093
Barrier iterations: 48
